10
1 0 21
2 0 21
2 1 12
3 0 29
3 1 23
3 2 30
4 0 24
4 1 19
4 2 25
4 3 23
5 0 31
5 1 15
5 2 16
5 3 16
5 4 28
6 0 16
6 1 45
6 2 49
6 3 41
6 4 20
6 5 34
7 0 31
7 1 33
7 2 16
7 3 13
7 4 42
7 5 9
7 6 35
8 0 48
8 1 8
8 2 24
8 3 1
8 4 44
8 5 7
8 6 2
8 7 19
9 0 2
9 1 49
9 2 21
9 3 26
9 4 42
9 5 13
9 6 26
9 7 17
9 8 3
